templates/kyivmural-cdn.cfn
---
AWSTemplateFormatVersion: "2010-09-09"
Description: Kyivmural CDN v0.1.0

Resources:
  S3Bucket:
    Type: AWS::S3::Bucket
    Properties:
      BucketEncryption:
        ServerSideEncryptionConfiguration:
          - ServerSideEncryptionByDefault:
              SSEAlgorithm: AES256
      PublicAccessBlockConfiguration:
        BlockPublicAcls: true
        BlockPublicPolicy: true
        IgnorePublicAcls: true
        RestrictPublicBuckets: true

  ReadPolicy:
    Type: AWS::S3::BucketPolicy
    Properties:
      Bucket: !Ref S3Bucket
      PolicyDocument:
        Statement:
          - Action: s3:GetObject
            Effect: Allow
            Resource: !Sub 'arn:aws:s3:::${S3Bucket}/*'
            Principal:
              CanonicalUser: !GetAtt CloudFrontOriginAccessIdentity.S3CanonicalUserId

  CloudFrontOriginAccessIdentity:
    Type: AWS::CloudFront::CloudFrontOriginAccessIdentity
    Properties:
      CloudFrontOriginAccessIdentityConfig:
        Comment: !Ref S3Bucket

  CloudFrontDistribution:
    Type: AWS::CloudFront::Distribution
    Properties:
      DistributionConfig:
        Origins:
          - DomainName: !GetAtt S3Bucket.DomainName
            Id: s3origin
            S3OriginConfig:
              OriginAccessIdentity: !Sub "origin-access-identity/cloudfront/${CloudFrontOriginAccessIdentity}"
        Enabled: true
        DefaultRootObject: index.html
        DefaultCacheBehavior:
          AllowedMethods:
            - GET
            - HEAD
            - OPTIONS
          CachedMethods:
            - GET
            - HEAD
            - OPTIONS
          TargetOriginId: s3origin
          ForwardedValues:
            Cookies:
              Forward: none
            QueryString: false
          ViewerProtocolPolicy: redirect-to-https
        PriceClass: PriceClass_100
        ViewerCertificate:
          CloudFrontDefaultCertificate: true

Outputs:
  CloudFrontDistributionDomainName:
    Value: !GetAtt CloudFrontDistribution.DomainName
